p cnf 23 21
-1 11 20 0 
-2 21 0 
-3 10 22 0 
-4 23 0 
-5 21 0 
-6 18 -7 22 0 
-8 22 0 
-9 17 21 0 
-10 3 21 0 
-11 1 22 0 
-12 22 0 
-13 19 23 0 
-14 21 0 
-15 22 0 
-16 21 0 
-12 -11 1 22 0 
-17 9 22 0 
-11 1 21 0 
-18 6 -12 22 0 
-12 -17 9 22 0 
-19 13 22 0 
